benchmark_instances/dzn_benchmark_instances/benchmark_instance_9-5.dzn
% Input: sequence of points
seq_points = [|1,1
              |4,1
              |5,1
              |8,1
              |1,2
              |3,2
              |4,2
              |5,2
              |7,2
              |8,2
              |2,3
              |3,3
              |5,3
              |8,3
              |1,4
              |2,4
              |5,4
              |8,4
              |1,5
              |2,5
              |5,5
              |6,5
              |7,5
              |8,5
              |3,6
              |5,6
              |6,6
              |8,6
              |2,7
              |3,7
              |8,7
              |5,8
              |6,8
              |8,8
              |9,0
              |9,3
              |9,4
              |9,7
              |9,8
              |5,9
              |6,9
              |9,9
              |0,3
              |0,4
              |0,9
              |0,0
             |];

num_points = 46;
