benchmark_instances/lp_benchmark_instances/benchmark_instance_9-5.lp
% Input: sequence of points
point(1,1).
point(4,1).
point(5,1).
point(8,1).
point(1,2).
point(3,2).
point(4,2).
point(5,2).
point(7,2).
point(8,2).
point(2,3).
point(3,3).
point(5,3).
point(8,3).
point(1,4).
point(2,4).
point(5,4).
point(8,4).
point(1,5).
point(2,5).
point(5,5).
point(6,5).
point(7,5).
point(8,5).
point(3,6).
point(5,6).
point(6,6).
point(8,6).
point(2,7).
point(3,7).
point(8,7).
point(5,8).
point(6,8).
point(8,8).
point(9,0).
point(9,3).
point(9,4).
point(9,7).
point(9,8).
point(5,9).
point(6,9).
point(9,9).
point(0,3).
point(0,4).
point(0,9).
point(0,0).
